GLPSOL: GLPK LP/MIP Solver, v4.65
Parameter(s) specified in the command line:
 -m model/Temba_0406_modex.txt -d output_data/TEMBA_2.0_modex.txt --wlp output_data/TEMBA_2.0.lp.gz
 --check --log output_data/glpsol_TEMBA_2.0.log
Reading model section from model/Temba_0406_modex.txt...
504 lines were read
Reading data section from output_data/TEMBA_2.0_modex.txt...
16345 lines were read
Generating cost...
Generating CAa2_TotalAnnualCapacity...
Generating CAa4_Constraint_Capacity...
Generating CAa5_TotalNewCapacity...
Generating CAb1_PlannedMaintenance...
Generating EBa10_EnergyBalanceEachTS4...
Generating EBa11_EnergyBalanceEachTS5...
Generating EBb4_EnergyBalanceEachYear4...
Generating S5_and_S6_StorageLevelYearStart...
Generating S7_and_S8_StorageLevelYearFinish...
Generating S9_and_S10_StorageLevelSeasonStart...
Generating S11_and_S12_StorageLevelDayTypeStart...
Generating S13_and_S14_and_S15_StorageLevelDayTypeFinish...
Generating SC1_LowerLimit_BeginningOfDailyTimeBracketOfFirstInstanceOfDayTypeInFirstWeekConstraint...
Generating SC1_UpperLimit_BeginningOfDailyTimeBracketOfFirstInstanceOfDayTypeInFirstWeekConstraint...
Generating SC2_LowerLimit_EndOfDailyTimeBracketOfLastInstanceOfDayTypeInFirstWeekConstraint...
Generating SC2_UpperLimit_EndOfDailyTimeBracketOfLastInstanceOfDayTypeInFirstWeekConstraint...
Generating SC3_LowerLimit_EndOfDailyTimeBracketOfLastInstanceOfDayTypeInLastWeekConstraint...
Generating SC3_UpperLimit_EndOfDailyTimeBracketOfLastInstanceOfDayTypeInLastWeekConstraint...
Generating SC4_LowerLimit_BeginningOfDailyTimeBracketOfFirstInstanceOfDayTypeInLastWeekConstraint...
Generating SC4_UpperLimit_BeginningOfDailyTimeBracketOfFirstInstanceOfDayTypeInLastWeekConstraint...
Generating SC5_MaxChargeConstraint...
Generating SC6_MaxDischargeConstraint...
Generating SI6_SalvageValueStorageAtEndOfPeriod1...
Generating SI7_SalvageValueStorageAtEndOfPeriod2...
Generating SI8_SalvageValueStorageAtEndOfPeriod3...
Generating SI9_SalvageValueStorageDiscountedToStartYear...
Generating CC1_UndiscountedCapitalInvestment...
Generating SV1_SalvageValueAtEndOfPeriod1...
Generating SV2_SalvageValueAtEndOfPeriod2...
Generating SV3_SalvageValueAtEndOfPeriod3...
Generating SV4_SalvageValueDiscountedToStartYear...
Generating OC1_OperatingCostsVariable...
Generating OC2_OperatingCostsFixedAnnual...
Generating TCC1_TotalAnnualMaxCapacityConstraint...
Generating TCC2_TotalAnnualMinCapacityConstraint...
Generating NCC1_TotalAnnualMaxNewCapacityConstraint...
Generating NCC2_TotalAnnualMinNewCapacityConstraint...
Generating AAC2_TotalAnnualTechnologyActivityUpperLimit...
Generating AAC3_TotalAnnualTechnologyActivityLowerLimit...
Generating TAC2_TotalModelHorizonTechnologyActivityUpperLimit...
Generating TAC3_TotalModelHorizenTechnologyActivityLowerLimit...
Generating RE4_EnergyConstraint...
Generating E5_DiscountedEmissionsPenaltyByTechnology...
Generating E8_AnnualEmissionsLimit...
Generating E9_ModelPeriodEmissionsLimit...
Model has been successfully generated
glp_mpl_build_prob: row cost; constant term 11670.7915206 ignored
Writing problem data to 'output_data/TEMBA_2.0.lp.gz'...
10587482 lines were written
--- Problem Characteristics ---
Number of rows               =   606998
Number of columns            =   465920
Number of non-zeros (matrix) =  9784420
Number of non-zeros (objrow) =   247632
